DATASET = "thpack1";
INSTANCE = "076";

WIDTH = 233;
HEIGHT = 220;
LENGTH = 587;

NO_OF_SHAPES = 3;
size = [|
  77,42,30 |
  98,45,28 |
  61,58,32 |
|];

verticality = [|
  0,1,1 |
  0,1,1 |
  1,1,1 |
|];

box_count = [
  89,
  95,
  85,
];
